&CONTROL
    calculation   = "vc-relax"
    nstep         = 100
    pseudo_dir    = "./"
/

&SYSTEM
    degauss     =  1.00000e-02
    ecutrho     =  5.00000e+02
    ecutwfc     =  5.00000e+01
    ibrav       = 0
    nat         = 120
    ntyp        = 2
    occupations = "smearing"
    smearing    = "gaussian"
/

&ELECTRONS
    conv_thr         =  1.00000e-04
    diagonalization  = "cg"
    electron_maxstep = 200
    mixing_beta      =  4.00000e-01
    mixing_mode      = "local-TF"
    startingpot      = "atomic"
    startingwfc      = "atomic+random"
/

&IONS
    ion_dynamics = "bfgs"
/

&CELL
    cell_dofree    = "all"
    cell_dynamics  = "bfgs"

/

K_POINTS {automatic}
 4  4  4  1 1 1

CELL_PARAMETERS {angstrom}
  7.938200   0.000000   0.000000
  0.000000   7.938200   0.000000
  0.000000   0.000000   7.938200

ATOMIC_SPECIES
Al     26.98154  Al.pbe-nl-rrkjus_psl.1.0.0.UPF
O      15.99940  O.pbe-n-rrkjus_psl.1.0.0.UPF

ATOMIC_POSITIONS {angstrom}
Al      0.992275   0.992275   0.992275
Al      6.945925   6.945925   6.945925
Al      4.961375   0.992275   4.961375
Al      2.976825   6.945925   2.976825
Al      0.992275   4.961375   4.961375
Al      6.945925   2.976825   2.976825
Al      4.961375   4.961375   0.992275
Al      2.976825   2.976825   6.945925
Al      3.969100   3.969100   3.969100
Al      1.984550   5.953650   0.000000
Al      5.953650   1.984550   0.000000
Al      5.953650   0.000000   1.984550
Al      1.984550   0.000000   5.953650
Al      0.000000   1.984550   5.953650
Al      0.000000   5.953650   1.984550
Al      3.969100   0.000000   0.000000
Al      1.984550   1.984550   3.969100
Al      5.953650   5.953650   3.969100
Al      5.953650   3.969100   5.953650
Al      1.984550   3.969100   1.984550
Al      0.000000   3.969100   0.000000
Al      3.969100   1.984550   1.984550
Al      3.969100   5.953650   5.953650
Al      0.000000   0.000000   3.969100
Al      0.000000   0.000000   0.000000
Al      5.953650   1.984550   3.969100
Al      1.984550   5.953650   3.969100
Al      1.984550   3.969100   5.953650
Al      5.953650   3.969100   1.984550
Al      3.969100   5.953650   1.984550
Al      3.969100   1.984550   5.953650
Al      0.000000   3.969100   3.969100
Al      5.953650   5.953650   0.000000
Al      1.984550   1.984550   0.000000
Al      1.984550   0.000000   1.984550
Al      5.953650   0.000000   5.953650
Al      3.969100   0.000000   3.969100
Al      0.000000   5.953650   5.953650
Al      0.000000   1.984550   1.984550
Al      3.969100   3.969100   0.000000
Al      6.961801   0.992275   0.992275
Al      0.976399   6.945925   6.945925
Al      6.930049   0.992275   4.961375
Al      1.008151   6.945925   2.976825
Al      2.960949   4.961375   4.961375
Al      4.977251   2.976825   2.976825
Al      2.992701   4.961375   0.992275
Al      4.945499   2.976825   6.945925
Al      0.992275   6.961801   0.992275
Al      6.945925   0.976399   6.945925
Al      4.961375   6.930049   0.992275
Al      2.976825   1.008151   6.945925
Al      4.961375   2.960949   4.961375
Al      2.976825   4.977251   2.976825
Al      0.992275   2.992701   4.961375
Al      6.945925   4.945499   2.976825
Al      0.992275   0.992275   6.961801
Al      6.945925   6.945925   0.976399
Al      0.992275   4.961375   6.930049
Al      6.945925   2.976825   1.008151
Al      4.961375   4.961375   2.960949
Al      2.976825   2.976825   4.977251
Al      4.961375   0.992275   2.992701
Al      2.976825   6.945925   4.945499
Al      6.945925   1.008151   2.976825
Al      0.992275   6.930049   4.961375
Al      2.976825   4.945499   6.945925
Al      4.961375   2.992701   0.992275
Al      4.945499   6.945925   2.976825
Al      2.992701   0.992275   4.961375
Al      1.008151   2.976825   6.945925
Al      6.930049   4.961375   0.992275
Al      6.945925   2.976825   4.945499
Al      0.992275   4.961375   2.992701
Al      2.976825   6.945925   1.008151
Al      4.961375   0.992275   6.930049
Al      6.961801   4.961375   4.961375
Al      0.976399   2.976825   2.976825
Al      2.960949   0.992275   0.992275
Al      4.977251   6.945925   6.945925
Al      0.992275   0.992275   2.960949
Al      6.945925   6.945925   4.977251
Al      4.961375   4.961375   6.961801
Al      2.976825   2.976825   0.976399
Al      6.945925   4.977251   6.945925
Al      0.992275   2.960949   0.992275
Al      2.976825   0.976399   2.976825
Al      4.961375   6.961801   4.961375
O       2.037974   2.037974   2.037974
O       5.900226   5.900226   5.900226
O       3.915676   7.884776   6.007074
O       4.022524   0.053424   1.931126
O       7.884776   6.007074   3.915676
O       0.053424   1.931126   4.022524
O       6.007074   3.915676   7.884776
O       1.931126   4.022524   0.053424
O       0.053424   4.022524   1.931126
O       7.884776   3.915676   6.007074
O       4.022524   1.931126   0.053424
O       3.915676   6.007074   7.884776
O       1.931126   0.053424   4.022524
O       6.007074   7.884776   3.915676
O       2.037974   6.007074   6.007074
O       5.900226   1.931126   1.931126
O       3.915676   3.915676   2.037974
O       4.022524   4.022524   5.900226
O       7.884776   2.037974   7.884776
O       0.053424   5.900226   0.053424
O       0.053424   0.053424   5.900226
O       7.884776   7.884776   2.037974
O       4.022524   5.900226   4.022524
O       3.915676   2.037974   3.915676
O       6.007074   2.037974   6.007074
O       1.931126   5.900226   1.931126
O       2.037974   3.915676   3.915676
O       5.900226   4.022524   4.022524
O       5.900226   0.053424   0.053424
O       2.037974   7.884776   7.884776
O       6.007074   6.007074   2.037974
O       1.931126   1.931126   5.900226


