&CONTROL
    calculation   = "vc-relax"
    forc_conv_thr =  1.00000e-03
    max_seconds   =  1.72800e+05
    nstep         = 100
    pseudo_dir    = "./"
/

&SYSTEM
    degauss     =  1.00000e-02
    ecutrho     =  5.00000e+02
    ecutwfc     =  5.00000e+01
    ibrav       = 0
    nat         = 240
    ntyp        = 2
    occupations = "smearing"
    smearing    = "mp"
/

&ELECTRONS
    conv_thr         =  1.00000e-04
    diagonalization  = "cg"
    electron_maxstep = 200
    mixing_beta      =  4.00000e-01
    mixing_mode      = "local-TF"
    startingpot      = "atomic"
    startingwfc      = "atomic+random"
/

&IONS
    ion_dynamics = "bfgs"
/

&CELL
    cell_dofree    = "xy"
    cell_dynamics  = "bfgs"
    press_conv_thr =  5.00000e-01
/

K_POINTS {automatic}
 2  4  1  0 0 0

CELL_PARAMETERS {angstrom}
 15.876400   0.000000   0.000000
  0.000000   7.938200   0.000000
  0.000000   0.000000  27.015200

ATOMIC_SPECIES
Al     26.98154  Al.pbe-nl-rrkjus_psl.1.0.0.UPF
O      15.99940  O.pbe-n-rrkjus_psl.1.0.0.UPF

ATOMIC_POSITIONS {angstrom}
O       6.007074   2.037974  17.015225
O       7.884776   3.915676  17.015225
O       2.037974   6.007074  17.015225
O       3.915676   7.884776  17.015225
Al      1.984550   0.000000  16.961801
Al      5.953650   0.000000  16.961801
Al      0.000000   1.984550  16.961801
Al      3.969100   1.984550  16.961801
Al      1.984550   3.969100  16.961801
Al      5.953650   3.969100  16.961801
Al      0.000000   5.953650  16.961801
Al      3.969100   5.953650  16.961801
O       0.053424   0.053424  16.908377
O       1.931126   1.931126  16.908377
O       4.022524   4.022524  16.908377
O       5.900226   5.900226  16.908377
Al      2.976825   2.976825  15.985403
Al      6.945925   6.945925  15.985403
Al      2.992701   0.992275  15.969526
Al      4.961375   0.992275  15.969526
Al      6.930049   0.992275  15.969526
Al      4.961375   2.960949  15.969526
Al      0.992275   2.992701  15.969526
Al      0.992275   4.961375  15.969526
Al      2.960949   4.961375  15.969526
Al      6.961801   4.961375  15.969526
Al      0.992275   6.930049  15.969526
Al      4.961375   6.961801  15.969526
Al      6.945925   2.976825  15.953650
Al      2.976825   6.945925  15.953650
O       1.931126   0.053424  15.030675
O       0.053424   1.931126  15.030675
O       5.900226   4.022524  15.030675
O       4.022524   5.900226  15.030675
Al      0.000000   0.000000  14.977251
Al      3.969100   0.000000  14.977251
Al      1.984550   1.984550  14.977251
Al      5.953650   1.984550  14.977251
Al      0.000000   3.969100  14.977251
Al      3.969100   3.969100  14.977251
Al      1.984550   5.953650  14.977251
Al      5.953650   5.953650  14.977251
O       3.915676   2.037974  14.923827
O       2.037974   3.915676  14.923827
O       7.884776   6.007074  14.923827
O       6.007074   7.884776  14.923827
Al      4.961375   0.992275  14.000853
Al      0.992275   4.961375  14.000853
Al      2.976825   0.976399  13.984976
Al      6.945925   1.008151  13.984976
Al      0.976399   2.976825  13.984976
Al      4.977251   2.976825  13.984976
Al      6.945925   2.976825  13.984976
Al      6.945925   4.945499  13.984976
Al      2.976825   4.977251  13.984976
Al      1.008151   6.945925  13.984976
Al      2.976825   6.945925  13.984976
Al      4.945499   6.945925  13.984976
Al      0.992275   0.992275  13.969100
Al      4.961375   4.961375  13.969100
O       2.037974   2.037974  13.046125
O       3.915676   3.915676  13.046125
O       6.007074   6.007074  13.046125
O       7.884776   7.884776  13.046125
Al      1.984550   0.000000  12.992701
Al      5.953650   0.000000  12.992701
Al      0.000000   1.984550  12.992701
Al      3.969100   1.984550  12.992701
Al      1.984550   3.969100  12.992701
Al      5.953650   3.969100  12.992701
Al      0.000000   5.953650  12.992701
Al      3.969100   5.953650  12.992701
O       4.022524   0.053424  12.939277
O       5.900226   1.931126  12.939277
O       0.053424   4.022524  12.939277
O       1.931126   5.900226  12.939277
Al      6.945925   2.976825  12.016303
Al      2.976825   6.945925  12.016303
Al      0.992275   0.992275  12.000426
Al      2.960949   0.992275  12.000426
Al      6.961801   0.992275  12.000426
Al      0.992275   2.960949  12.000426
Al      4.961375   2.992701  12.000426
Al      2.992701   4.961375  12.000426
Al      4.961375   4.961375  12.000426
Al      6.930049   4.961375  12.000426
Al      4.961375   6.930049  12.000426
Al      0.992275   6.961801  12.000426
Al      2.976825   2.976825  11.984550
Al      6.945925   6.945925  11.984550
O       5.900226   0.053424  11.061575
O       4.022524   1.931126  11.061575
O       1.931126   4.022524  11.061575
O       0.053424   5.900226  11.061575
Al      0.000000   0.000000  11.008151
Al      3.969100   0.000000  11.008151
Al      1.984550   1.984550  11.008151
Al      5.953650   1.984550  11.008151
Al      0.000000   3.969100  11.008151
Al      3.969100   3.969100  11.008151
Al      1.984550   5.953650  11.008151
Al      5.953650   5.953650  11.008151
O       7.884776   2.037974  10.954727
O       6.007074   3.915676  10.954727
O       3.915676   6.007074  10.954727
O       2.037974   7.884776  10.954727
Al      0.992275   0.992275  10.031753
Al      4.961375   4.961375  10.031753
Al      6.945925   0.976399  10.015876
Al      2.976825   1.008151  10.015876
Al      1.008151   2.976825  10.015876
Al      2.976825   2.976825  10.015876
Al      4.945499   2.976825  10.015876
Al      2.976825   4.945499  10.015876
Al      6.945925   4.977251  10.015876
Al      0.976399   6.945925  10.015876
Al      4.977251   6.945925  10.015876
Al      6.945925   6.945925  10.015876
Al      4.961375   0.992275  10.000000
Al      0.992275   4.961375  10.000000
O      13.945274   2.037974  17.015225
O      15.822976   3.915676  17.015225
O       9.976174   6.007074  17.015225
O      11.853876   7.884776  17.015225
Al      9.922750   0.000000  16.961801
Al     13.891850   0.000000  16.961801
Al      7.938200   1.984550  16.961801
Al     11.907300   1.984550  16.961801
Al      9.922750   3.969100  16.961801
Al     13.891850   3.969100  16.961801
Al      7.938200   5.953650  16.961801
Al     11.907300   5.953650  16.961801
O       7.991624   0.053424  16.908377
O       9.869326   1.931126  16.908377
O      11.960724   4.022524  16.908377
O      13.838426   5.900226  16.908377
Al     10.915025   2.976825  15.985403
Al     14.884125   6.945925  15.985403
Al     10.930901   0.992275  15.969526
Al     12.899575   0.992275  15.969526
Al     14.868249   0.992275  15.969526
Al     12.899575   2.960949  15.969526
Al      8.930475   2.992701  15.969526
Al      8.930475   4.961375  15.969526
Al     10.899149   4.961375  15.969526
Al     14.900001   4.961375  15.969526
Al      8.930475   6.930049  15.969526
Al     12.899575   6.961801  15.969526
Al     14.884125   2.976825  15.953650
Al     10.915025   6.945925  15.953650
O       9.869326   0.053424  15.030675
O       7.991624   1.931126  15.030675
O      13.838426   4.022524  15.030675
O      11.960724   5.900226  15.030675
Al      7.938200   0.000000  14.977251
Al     11.907300   0.000000  14.977251
Al      9.922750   1.984550  14.977251
Al     13.891850   1.984550  14.977251
Al      7.938200   3.969100  14.977251
Al     11.907300   3.969100  14.977251
Al      9.922750   5.953650  14.977251
Al     13.891850   5.953650  14.977251
O      11.853876   2.037974  14.923827
O       9.976174   3.915676  14.923827
O      15.822976   6.007074  14.923827
O      13.945274   7.884776  14.923827
Al     12.899575   0.992275  14.000853
Al      8.930475   4.961375  14.000853
Al     10.915025   0.976399  13.984976
Al     14.884125   1.008151  13.984976
Al      8.914599   2.976825  13.984976
Al     12.915451   2.976825  13.984976
Al     14.884125   2.976825  13.984976
Al     14.884125   4.945499  13.984976
Al     10.915025   4.977251  13.984976
Al      8.946351   6.945925  13.984976
Al     10.915025   6.945925  13.984976
Al     12.883699   6.945925  13.984976
Al      8.930475   0.992275  13.969100
Al     12.899575   4.961375  13.969100
O       9.976174   2.037974  13.046125
O      11.853876   3.915676  13.046125
O      13.945274   6.007074  13.046125
O      15.822976   7.884776  13.046125
Al      9.922750   0.000000  12.992701
Al     13.891850   0.000000  12.992701
Al      7.938200   1.984550  12.992701
Al     11.907300   1.984550  12.992701
Al      9.922750   3.969100  12.992701
Al     13.891850   3.969100  12.992701
Al      7.938200   5.953650  12.992701
Al     11.907300   5.953650  12.992701
O      11.960724   0.053424  12.939277
O      13.838426   1.931126  12.939277
O       7.991624   4.022524  12.939277
O       9.869326   5.900226  12.939277
Al     14.884125   2.976825  12.016303
Al     10.915025   6.945925  12.016303
Al      8.930475   0.992275  12.000426
Al     10.899149   0.992275  12.000426
Al     14.900001   0.992275  12.000426
Al      8.930475   2.960949  12.000426
Al     12.899575   2.992701  12.000426
Al     10.930901   4.961375  12.000426
Al     12.899575   4.961375  12.000426
Al     14.868249   4.961375  12.000426
Al     12.899575   6.930049  12.000426
Al      8.930475   6.961801  12.000426
Al     10.915025   2.976825  11.984550
Al     14.884125   6.945925  11.984550
O      13.838426   0.053424  11.061575
O      11.960724   1.931126  11.061575
O       9.869326   4.022524  11.061575
O       7.991624   5.900226  11.061575
Al      7.938200   0.000000  11.008151
Al     11.907300   0.000000  11.008151
Al      9.922750   1.984550  11.008151
Al     13.891850   1.984550  11.008151
Al      7.938200   3.969100  11.008151
Al     11.907300   3.969100  11.008151
Al      9.922750   5.953650  11.008151
Al     13.891850   5.953650  11.008151
O      15.822976   2.037974  10.954727
O      13.945274   3.915676  10.954727
O      11.853876   6.007074  10.954727
O       9.976174   7.884776  10.954727
Al      8.930475   0.992275  10.031753
Al     12.899575   4.961375  10.031753
Al     14.884125   0.976399  10.015876
Al     10.915025   1.008151  10.015876
Al      8.946351   2.976825  10.015876
Al     10.915025   2.976825  10.015876
Al     12.883699   2.976825  10.015876
Al     10.915025   4.945499  10.015876
Al     14.884125   4.977251  10.015876
Al      8.914599   6.945925  10.015876
Al     12.915451   6.945925  10.015876
Al     14.884125   6.945925  10.015876
Al     12.899575   0.992275  10.000000
Al      8.930475   4.961375  10.000000


