&CONTROL
    calculation   = "vc-relax"
    forc_conv_thr =  1.00000e-03
    max_seconds   =  1.72800e+05
    nstep         = 100
    pseudo_dir    = "./"
/

&SYSTEM
    degauss                   =  1.00000e-02
    ecutrho                   =  5.00000e+02
    ecutwfc                   =  5.00000e+01
    ibrav                     = 0
    nat                       = 192
    ntyp                      = 2
    occupations               = "smearing"
    smearing                  = "gaussian"
/

&ELECTRONS
    conv_thr         =  1.00000e-06
    diagonalization  = "david"
    electron_maxstep = 200
    mixing_beta      =  4.00000e-01
    mixing_mode      = "local-TF"
    startingpot      = "atomic"
    startingwfc      = "atomic+random"
/

&IONS
    ion_dynamics = "bfgs"
/

&CELL
    cell_dofree    = "xy"
    cell_dynamics  = "bfgs"
    press_conv_thr =  5.00000e-01
/

K_POINTS {automatic}
 3  4  1  0 0 0

CELL_PARAMETERS {angstrom}
 15.140000   0.000000   0.000000
  0.000000  19.039200   0.000000
  0.000000   0.000000  25.677500

ATOMIC_SPECIES
O    15.99940  O.pbe-rrkjus.UPF
Ti   47.86700  Ti.pbe-sp-van_ak.UPF

ATOMIC_POSITIONS {angstrom}
O     1.892500   2.759066  15.677500
O     5.677500   2.759066  15.677500
Ti    1.892500   4.759800  15.677500
Ti    5.677500   4.759800  15.677500
O    0.000000   5.138966  15.677500
O    3.785000   5.138966  15.677500
O    1.892500   6.760534  15.677500
O    5.677500   6.760534  15.677500
Ti    0.000000   7.139700  15.677500
Ti    3.785000   7.139700  15.677500
O    0.000000   9.140434  15.677500
O    3.785000   9.140434  15.677500
O    1.892500  12.278666  15.677500
O    5.677500  12.278666  15.677500
Ti    1.892500  14.279400  15.677500
Ti    5.677500  14.279400  15.677500
O  0.000000  14.658566  15.677500
O  3.785000  14.658566  15.677500
O  1.892500  16.280134  15.677500
O    5.677500  16.280134  15.677500
Ti   0.000000  16.659300  15.677500
Ti   3.785000  16.659300  15.677500
O  0.000000  18.660034  15.677500
O  3.785000  18.660034  15.677500
Ti   0.000000   0.000000  13.785000
Ti   3.785000   0.000000  13.785000
O   1.892500   0.379166  13.785000
O   5.677500   0.379166  13.785000
O   0.000000   2.000734  13.785000
O   3.785000   2.000734  13.785000
Ti   1.892500   2.379900  13.785000
Ti   5.677500   2.379900  13.785000
O   1.892500   4.380634  13.785000
O   5.677500   4.380634  13.785000
O   0.000000   7.518866  13.785000
O   3.785000   7.518866  13.785000
Ti   0.000000   9.519600  13.785000
Ti   3.785000   9.519600  13.785000
O   1.892500   9.898766  13.785000
O   5.677500   9.898766  13.785000
O   0.000000  11.520334  13.785000
O   3.785000  11.520334  13.785000
Ti   1.892500  11.899500  13.785000
Ti   5.677500  11.899500  13.785000
O   1.892500  13.900234  13.785000
O   5.677500  13.900234  13.785000
O   0.000000  17.038466  13.785000
O   3.785000  17.038466  13.785000
O   1.892500   2.759066  11.892500
O   5.677500   2.759066  11.892500
Ti   1.892500   4.759800  11.892500
Ti   5.677500   4.759800  11.892500
O   0.000000   5.138966  11.892500
O   3.785000   5.138966  11.892500
O   1.892500   6.760534  11.892500
O   5.677500   6.760534  11.892500
Ti   0.000000   7.139700  11.892500
Ti   3.785000   7.139700  11.892500
O   0.000000   9.140434  11.892500
O   3.785000   9.140434  11.892500
O   1.892500  12.278666  11.892500
O   5.677500  12.278666  11.892500
Ti   1.892500  14.279400  11.892500
Ti   5.677500  14.279400  11.892500
O   0.000000  14.658566  11.892500
O   3.785000  14.658566  11.892500
O   1.892500  16.280134  11.892500
O   5.677500  16.280134  11.892500
Ti   0.000000  16.659300  11.892500
Ti   3.785000  16.659300  11.892500
O   0.000000  18.660034  11.892500
O   3.785000  18.660034  11.892500
Ti   0.000000   0.000000  10.000000
Ti   3.785000   0.000000  10.000000
O   1.892500   0.379166  10.000000
O   5.677500   0.379166  10.000000
O   0.000000   2.000734  10.000000
O   3.785000   2.000734  10.000000
Ti   1.892500   2.379900  10.000000
Ti   5.677500   2.379900  10.000000
O   1.892500   4.380634  10.000000
O   5.677500   4.380634  10.000000
O   0.000000   7.518866  10.000000
O   3.785000   7.518866  10.000000
Ti   0.000000   9.519600  10.000000
Ti   3.785000   9.519600  10.000000
O   1.892500   9.898766  10.000000
O   5.677500   9.898766  10.000000
O   0.000000  11.520334  10.000000
O   3.785000  11.520334  10.000000
Ti   1.892500  11.899500  10.000000
Ti   5.677500  11.899500  10.000000
O   1.892500  13.900234  10.000000
O   5.677500  13.900234  10.000000
O   0.000000  17.038466  10.000000
O   3.785000  17.038466  10.000000
O   9.462500   2.759066  15.677500
O  13.247500   2.759066  15.677500
Ti   9.462500   4.759800  15.677500
Ti  13.247500   4.759800  15.677500
O   7.570000   5.138966  15.677500
O  11.355000   5.138966  15.677500
O   9.462500   6.760534  15.677500
O  13.247500   6.760534  15.677500
Ti   7.570000   7.139700  15.677500
Ti  11.355000   7.139700  15.677500
O   7.570000   9.140434  15.677500
O  11.355000   9.140434  15.677500
O   9.462500  12.278666  15.677500
O  13.247500  12.278666  15.677500
Ti   9.462500  14.279400  15.677500
Ti  13.247500  14.279400  15.677500
O   7.570000  14.658566  15.677500
O  11.355000  14.658566  15.677500
O   9.462500  16.280134  15.677500
O  13.247500  16.280134  15.677500
Ti   7.570000  16.659300  15.677500
Ti  11.355000  16.659300  15.677500
O   7.570000  18.660034  15.677500
O  11.355000  18.660034  15.677500
Ti   7.570000   0.000000  13.785000
Ti  11.355000   0.000000  13.785000
O   9.462500   0.379166  13.785000
O  13.247500   0.379166  13.785000
O   7.570000   2.000734  13.785000
O  11.355000   2.000734  13.785000
Ti   9.462500   2.379900  13.785000
Ti  13.247500   2.379900  13.785000
O   9.462500   4.380634  13.785000
O  13.247500   4.380634  13.785000
O   7.570000   7.518866  13.785000
O  11.355000   7.518866  13.785000
Ti   7.570000   9.519600  13.785000
Ti  11.355000   9.519600  13.785000
O   9.462500   9.898766  13.785000
O  13.247500   9.898766  13.785000
O   7.570000  11.520334  13.785000
O  11.355000  11.520334  13.785000
Ti   9.462500  11.899500  13.785000
Ti  13.247500  11.899500  13.785000
O   9.462500  13.900234  13.785000
O  13.247500  13.900234  13.785000
O   7.570000  17.038466  13.785000
O  11.355000  17.038466  13.785000
O   9.462500   2.759066  11.892500
O  13.247500   2.759066  11.892500
Ti   9.462500   4.759800  11.892500
Ti  13.247500   4.759800  11.892500
O   7.570000   5.138966  11.892500
O  11.355000   5.138966  11.892500
O   9.462500   6.760534  11.892500
O  13.247500   6.760534  11.892500
Ti   7.570000   7.139700  11.892500
Ti  11.355000   7.139700  11.892500
O   7.570000   9.140434  11.892500
O  11.355000   9.140434  11.892500
O   9.462500  12.278666  11.892500
O  13.247500  12.278666  11.892500
Ti   9.462500  14.279400  11.892500
Ti  13.247500  14.279400  11.892500
O   7.570000  14.658566  11.892500
O  11.355000  14.658566  11.892500
O   9.462500  16.280134  11.892500
O  13.247500  16.280134  11.892500
Ti   7.570000  16.659300  11.892500
Ti  11.355000  16.659300  11.892500
O   7.570000  18.660034  11.892500
O  11.355000  18.660034  11.892500
Ti   7.570000   0.000000  10.000000
Ti  11.355000   0.000000  10.000000
O   9.462500   0.379166  10.000000
O  13.247500   0.379166  10.000000
O   7.570000   2.000734  10.000000
O  11.355000   2.000734  10.000000
Ti   9.462500   2.379900  10.000000
Ti  13.247500   2.379900  10.000000
O   9.462500   4.380634  10.000000
O  13.247500   4.380634  10.000000
O   7.570000   7.518866  10.000000
O  11.355000   7.518866  10.000000
Ti   7.570000   9.519600  10.000000
Ti  11.355000   9.519600  10.000000
O   9.462500   9.898766  10.000000
O  13.247500   9.898766  10.000000
O   7.570000  11.520334  10.000000
O  11.355000  11.520334  10.000000
Ti   9.462500  11.899500  10.000000
Ti  13.247500  11.899500  10.000000
O   9.462500  13.900234  10.000000
O  13.247500  13.900234  10.000000
O   7.570000  17.038466  10.000000
O  11.355000  17.038466  10.000000


